Geometry = GenFormat { 
    <<< "geo_end.gen" 
} 
 
Driver = ConjugateGradient{ 
   MaxForceComponent = 1E-4 
   MaxSteps = 0 
   } 
Hamiltonian = DFTB{ 
   SlaterKosterFiles = Type2FileNames{ 
      Prefix = ./ 
      Separator = "-" 
      Suffix = ".skf" 
      } 
   } 
itmax = 200 
Options { 
   WriteResultsTag = Yes  
   WriteEigenvectors = Yes  
} 
